
Log started (V12.10.0.0) Fri Apr  2 08:31:31 2021

Warning, line 2259: Name 's224' does not exist.
Warning, line 2260: Name 's18' does not exist.
Warning, line 2261: Name 's302' does not exist.

Problem 'asset.lp' read.
Read time = 0.00 sec. (0.20 ticks)
New value for default parallel thread count: 1
New value for time limit in seconds: 300
Version identifier: 12.10.0.0 | 2019-11-26 | 843d4de
CPXPARAM_Threads                                 1
CPXPARAM_TimeLimit                               300
Found incumbent of value 0.000000 after 0.00 sec. (0.06 ticks)
Tried aggregator 3 times.
MIP Presolve eliminated 273 rows and 54 columns.
MIP Presolve modified 1725 coefficients.
Aggregator did 712 substitutions.
Reduced MIP has 888 rows, 1049 columns, and 4481 nonzeros.
Reduced MIP has 892 binaries, 116 generals, 0 SOSs, and 0 indicators.
Presolve time = 0.01 sec. (8.98 ticks)
Probing fixed 82 vars, tightened 17 bounds.
Probing time = 0.01 sec. (7.58 ticks)
Cover probing fixed 0 vars, tightened 17 bounds.
Tried aggregator 2 times.
MIP Presolve eliminated 154 rows and 128 columns.
MIP Presolve modified 501 coefficients.
Aggregator did 1 substitutions.
Reduced MIP has 733 rows, 913 columns, and 3736 nonzeros.
Reduced MIP has 788 binaries, 92 generals, 0 SOSs, and 0 indicators.
Presolve time = 0.01 sec. (4.81 ticks)
Probing time = 0.00 sec. (2.65 ticks)
Cover probing fixed 0 vars, tightened 1 bounds.
Tried aggregator 1 time.
Detecting symmetries...
MIP Presolve modified 88 coefficients.
Reduced MIP has 733 rows, 913 columns, and 3735 nonzeros.
Reduced MIP has 788 binaries, 92 generals, 0 SOSs, and 0 indicators.
Presolve time = 0.00 sec. (2.44 ticks)
Probing time = 0.00 sec. (2.65 ticks)
Clique table members: 2757.
MIP emphasis: balance optimality and feasibility.
MIP search method: dynamic search.
Parallel mode: none, using 1 thread.
Root relaxation solution time = 0.01 sec. (16.27 ticks)

        Nodes                                         Cuts/
   Node  Left     Objective  IInf  Best Integer    Best Bound    ItCnt     Gap

*     0+    0                            0.0000      575.0000              --- 
      0     0      393.1683   173        0.0000      393.1683      649     --- 
      0     0      373.7981   173        0.0000     Cuts: 283      931     --- 
      0     0      369.9989   173        0.0000     Cuts: 234     1083     --- 
      0     0      368.1548   173        0.0000     Cuts: 158     1165     --- 
      0     0      366.6778   173        0.0000     Cuts: 122     1264     --- 
      0     0      366.2853   173        0.0000      Cuts: 39     1319     --- 
Detecting symmetries...
      0     0      365.8367   173        0.0000      Cuts: 44     1361     --- 
      0     0      365.2156   173        0.0000      Cuts: 84     1423     --- 
      0     0      364.6361   173        0.0000     Cuts: 104     1468     --- 
      0     0      364.2019   173        0.0000      Cuts: 59     1533     --- 
      0     0      363.9036   173        0.0000      Cuts: 83     1584     --- 
      0     0      363.6175   173        0.0000     Cuts: 115     1647     --- 
      0     0      363.2524   173        0.0000      Cuts: 75     1697     --- 
      0     0      362.5457   173        0.0000      Cuts: 70     1768     --- 
      0     0      362.3213   173        0.0000      Cuts: 85     1844     --- 
      0     0      361.8113   173        0.0000      Cuts: 69     1908     --- 
      0     0      361.4149   173        0.0000     Cuts: 101     1968     --- 
      0     0      360.5067   173        0.0000      Cuts: 90     2075     --- 
      0     0      360.0413   173        0.0000     Cuts: 109     2135     --- 
*     0+    0                           40.0000      360.0413           800.10%
*     0+    0                           90.0000      360.0413           300.05%
      0     0        cutoff             90.0000      360.0413     2135  300.05%
      0     0      359.1989   173       90.0000      Cuts: 34     2225  299.11%
      0     0      358.9563   173       90.0000      Cuts: 82     2304  298.84%
      0     0      358.8956   173       90.0000      Cuts: 53     2346  298.77%
      0     0      358.7479   173       90.0000      Cuts: 57     2415  298.61%
      0     0      358.5056   173       90.0000      Cuts: 45     2470  298.34%
      0     0      358.5040   173       90.0000      Cuts: 31     2487  298.34%
*     0+    0                          195.0000      358.5040            83.85%
Detecting symmetries...
      0     2      358.5040   223      195.0000      358.4984     2487   83.85%
Elapsed time = 0.43 sec. (437.39 ticks, tree = 0.01 MB, solutions = 3)
*    65    58      integral     0      215.0000      358.4984     5857   66.74%
     80    69      352.9237   180      215.0000      356.9383     7127   66.02%
    239   201      354.4597   200      215.0000      354.4596    12470   64.86%
    320   262      304.1217   114      215.0000      353.0200    17214   64.20%
*   420+  325                          230.0000      352.7051            53.35%
    450   348      295.9455   119      230.0000      351.9722    22834   53.03%

Performing restart 1

Repeating presolve.
Tried aggregator 2 times.
MIP Presolve eliminated 1 rows and 0 columns.
MIP Presolve modified 717 coefficients.
Aggregator did 7 substitutions.
Reduced MIP has 725 rows, 906 columns, and 3154 nonzeros.
Reduced MIP has 781 binaries, 92 generals, 0 SOSs, and 0 indicators.
Presolve time = 0.01 sec. (4.10 ticks)
Tried aggregator 1 time.
Reduced MIP has 725 rows, 906 columns, and 3154 nonzeros.
Reduced MIP has 781 binaries, 92 generals, 0 SOSs, and 0 indicators.
Presolve time = 0.00 sec. (2.36 ticks)
Represolve time = 0.03 sec. (18.54 ticks)
    530     0      316.1548   189      230.0000     Cuts: 267    26772   37.46%
    530     0      297.9496   189      230.0000     Cuts: 203    27143   29.54%
    530     0      291.3750   189      230.0000     Cuts: 146    27301   26.68%
    530     0      287.7666   189      230.0000     Cuts: 145    27480   25.12%
    530     0      285.2130   189      230.0000     Cuts: 103    27573   24.01%
    530     0      283.0276   189      230.0000     Cuts: 154    27715   23.06%
    530     0      281.6612   189      230.0000      Cuts: 84    27827   22.46%
    530     0      280.5238   189      230.0000     Cuts: 118    27918   21.97%
    530     0      279.0641   189      230.0000      Cuts: 95    28071   21.33%
    530     0      276.8845   189      230.0000      Cuts: 77    28146   20.38%
    530     0      276.7318   189      230.0000      Cuts: 94    28252   20.32%
    530     0      276.2080   189      230.0000      Cuts: 72    28319   20.09%
    530     0      276.0959   189      230.0000     Cuts: 101    28365   20.04%
    530     0      275.8445   189      230.0000      Cuts: 32    28448   19.93%
    530     0      275.8001   189      230.0000      Cuts: 40    28490   19.91%
    530     0      275.6631   189      230.0000      Cuts: 43    28536   19.85%
    530     0      275.4979   189      230.0000      Cuts: 31    28660   19.78%
    530     0      274.7903   189      230.0000      Cuts: 68    28764   19.47%
    530     0      274.7288   189      230.0000      Cuts: 36    28813   19.45%
    530     0      274.6824   189      230.0000      Cuts: 42    28854   19.43%
    530     0      274.5385   189      230.0000      Cuts: 30    28914   19.36%
    530     0      274.5269   189      230.0000      Cuts: 37    28949   19.36%
    530     0      274.5212   189      230.0000      Cuts: 29    28974   19.36%
    530     0      274.5178   189      230.0000      Cuts: 39    28994   19.36%
    530     0      274.4131   189      230.0000      Cuts: 29    29056   19.31%
    530     0      274.3930   189      230.0000      Cuts: 58    29094   19.30%
    530     2      274.3930   159      230.0000      274.3694    29094   19.29%
    534     6      269.1441   127      230.0000      273.8954    29471   19.08%
    541    13      261.4915   110      230.0000      272.2841    30061   18.38%
    567    33      243.5967    47      230.0000      272.2841    30762   18.38%
*   615    45      integral     0      235.0000      269.1128    31582   14.52%
    625    54      255.8471   108      235.0000      268.6536    32120   14.32%
*   838   132      integral     0      240.0000      263.8376    37069    9.93%
*   847    69      integral     0      245.0000      263.0275    37499    7.36%
Elapsed time = 4.20 sec. (4932.45 ticks, tree = 0.40 MB, solutions = 8)

GUB cover cuts applied:  8
Clique cuts applied:  75
Cover cuts applied:  10
Implied bound cuts applied:  58
Flow cuts applied:  3
Mixed integer rounding cuts applied:  59
Zero-half cuts applied:  41
Lift and project cuts applied:  13
Gomory fractional cuts applied:  10

Root node processing (before b&c):
  Real time             =    0.43 sec. (437.51 ticks)
Sequential b&c:
  Real time             =    4.55 sec. (5447.14 ticks)
                          ------------
Total (root+branch&cut) =    4.99 sec. (5884.65 ticks)

Solution pool: 9 solutions saved.

MIP - Integer optimal solution:  Objective =  2.4500000000e+02
Solution time =    4.99 sec.  Iterations = 45124  Nodes = 1029
Deterministic time = 5884.65 ticks  (1180.10 ticks/sec)


Incumbent solution
Variable Name           Solution Value
F                           245.000000
y163                          0.000000
y43                           1.000000
y139                          1.000000
y198                          0.000000
y39                           1.000000
y339                          1.000000
y1                            0.000000
y155                          1.000000
y76                           1.000000
y270                          1.000000
y162                          1.000000
y77                           1.000000
y119                          1.000000
y187                          1.000000
y11                           1.000000
y58                           1.000000
y328                          1.000000
x177x1x1                     -0.000000
x177x155x1                    0.000000
x177x162x1                    0.000000
x177x58x1                     1.000000
x196x162x1                    1.000000
x196x77x1                     0.000000
x318x58x1                     1.000000
x318x328x1                    1.000000
x183x11x1                     1.000000
x183x58x1                     0.000000
x200x198x1                    0.000000
x200x1x1                      0.000000
x200x155x1                    1.000000
x196x163x2                    0.000000
x196x43x2                     0.000000
x196x339x2                    0.000000
x196x76x2                     1.000000
x29x187x2                     1.000000
x34x270x2                     0.000000
x34x162x2                     1.000000
x34x119x2                     1.000000
x88x328x2                     1.000000
x264x163x2                    0.000000
x264x39x2                     2.000000
x200x43x2                     1.000000
x200x39x2                     0.000000
x29x187x3                     1.000000
x183x11x3                     1.000000
x124x43x3                     1.000000
x124x198x3                    0.000000
x124x339x3                    0.000000
x124x155x3                    1.000000
x203x139x3                    2.000000
x163x270x2                    0.000000
x43x0x2                       0.000000
x43x339x2                     1.000000
x43x339x3                     1.000000
x43x77x3                      0.000000
x43x119x3                     0.000000
x139x1x3                     -0.000000
x139x155x3                    0.000000
x139x270x3                    1.000000
x139x119x3                    1.000000
x198x11x1                     0.000000
x198x1x3                      0.000000
x39x76x2                      1.000000
x39x270x2                     1.000000
x339x0x2                      1.000000
x339x119x2                    0.000000
x339x0x3                      1.000000
x1x0x1                       -0.000000
x1x58x1                       0.000000
x1x0x3                       -0.000000
x1x77x3                       0.000000
x155x0x1                      0.000000
x155x77x1                     1.000000
x155x0x3                      0.000000
x155x77x3                     1.000000
x76x0x2                       2.000000
x270x0x2                      1.000000
x270x0x3                      1.000000
x162x0x1                      1.000000
x162x0x2                      1.000000
x77x0x1                       1.000000
x77x0x3                       1.000000
x119x0x2                      1.000000
x119x0x3                      1.000000
x187x0x2                      1.000000
x187x0x3                      1.000000
x11x0x1                       1.000000
x11x0x3                       1.000000
x58x0x1                       2.000000
x328x0x1                      1.000000
x328x0x2                      1.000000
s177                          6.974937
s131                          7.340000
s198                          7.350000
s56                           7.360000
s239                          8.470000
s237                          8.520000
s150                          8.570000
s306                          7.660000
s217                          8.710000
s257                          8.710000
s1                            7.820000
z177z1z1                     -0.000000
s155                          7.820000
z177z155z1                    0.000000
s322                          7.850000
s261                          7.870000
s96                           8.890000
s20                           8.940000
s299                          8.950000
s151                          9.070000
s162                          9.070000
z177z162z1                    0.000000
s77                           9.260000
s312                          9.430000
s11                           9.460000
s58                           9.460000
z177z58z1                     1.000000
s328                          9.460000
s196                          7.101243
s163                          7.270000
z196z163z2                    0.000000
s43                           7.290000
z196z43z2                     0.000000
s339                          8.332687
z196z339z2                    0.000000
s106                          7.610000
s76                           8.705958
z196z76z2                     1.000000
s211                          7.830000
s259                          8.910000
s270                          8.887908
s23                           7.940000
z196z162z1                    1.000000
s105                          9.110000
z196z77z1                     0.000000
s119                          9.330000
s187                          9.088543
s168                          9.420000
z196z168z2                    1.000000
z196z58z1                     1.000000
s29                           7.907076
z29z187z2                     1.000000
z29z187z3                     1.000000
s318                          7.914920
z318z58z1                     1.000000
z318z328z1                    1.000000
s183                          7.986417
z183z11z1                     1.000000
z183z11z3                     1.000000
z183z58z1                     1.000000
s34                           7.619318
z34z270z2                     0.000000
z34z162z2                     1.000000
z34z119z2                     1.000000
z34z168z2                     1.000000
s88                           8.122511
z88z328z2                     1.000000
s264                          5.670000
z264z163z2                    1.000000
s300                          7.320000
z264z300z2                    1.000000
s213                          7.330000
s66                           7.370000
z264z66z2                     1.000000
s184                          7.390000
s89                           7.430000
z264z89z2                     1.000000
s221                          7.450000
z264z221z2                    1.000000
s39                           7.480000
z264z39z2                     1.000000
s332                          7.640000
s301                          7.680000
z264z301z2                    1.000000
z264z76z2                     1.000000
z264z259z2                    1.000000
z264z23z2                     1.000000
z264z105z2                    1.000000
z264z168z2                    1.000000
s200                          5.770000
z200z163z2                    1.000000
z200z43z2                     1.000000
z200z198z1                    0.000000
s2                            7.390000
z200z221z2                    1.000000
z200z239z1                    1.000000
z200z39z2                     1.000000
z200z237z1                    1.000000
z200z150z1                    1.000000
z200z301z2                    1.000000
z200z217z1                    1.000000
z200z257z1                    1.000000
z200z1z1                      0.000000
z200z155z1                    1.000000
z200z76z2                     1.000000
z200z96z1                     1.000000
z200z259z2                    1.000000
z200z23z2                     1.000000
z200z151z1                    1.000000
z200z105z2                    1.000000
z200z168z2                    1.000000
z200z58z1                     1.000000
s124                          5.925170
z124z43z3                     1.000000
s139                          7.501183
z124z198z3                    0.000000
s233                          7.493650
z124z233z3                    1.000000
z124z339z3                    0.000000
s241                          7.810000
z124z241z3                    1.000000
z124z155z3                    1.000000
s26                           7.830000
z124z26z3                     1.000000
s203                          5.991470
z203z139z3                    1.000000
z203z233z3                    1.000000
z203z241z3                    1.000000
z203z26z3                     1.000000
z163z270z2                    0.000000
z43z339z2                     1.000000
z43z339z3                     1.000000
z43z77z3                      0.000000
z43z119z3                     0.000000
z139z1z3                     -0.000000
z139z155z3                    0.000000
z139z270z3                    1.000000
z139z119z3                    1.000000
z300z168z2                    1.000000
z198z1z3                      0.000000
z198z11z1                     0.000000
z66z168z2                     1.000000
z39z76z2                      1.000000
z39z270z2                     1.000000
z339z119z2                    0.000000
z301z259z2                    1.000000
z1z77z3                       0.000000
z1z58z1                       0.000000
z155z77z1                     1.000000
z155z77z3                     1.000000
z23z105z2                     1.000000
All other variables in the range 1-1816 are 0.
